197	32	4	89	
10	10	10	10

0	0	0	0	0	0	4	1	2	3	4
1	0	0	0	10	10	1	15
2	0	0	0	9	8	1	6
3	8	0	0	0	8	1	8
4	0	0	2	0	7	1	5
5	0	0	0	10	7	1	27
6	0	10	0	0	5	1	7
7	0	0	8	0	8	1	14
8	6	0	0	0	2	1	9
9	0	0	0	9	8	1	10
10	0	0	0	10	3	1	11
11	0	6	0	0	8	1	12
12	0	0	8	0	10	1	13
13	10	0	0	0	7	2	19	30
14	0	0	10	0	2	1	16
15	5	0	0	0	10	1	17
16	0	0	1	0	10	1	18
17	0	5	0	0	7	1	24
18	0	0	0	8	10	1	19
19	8	0	0	0	3	1	20
20	0	9	0	0	1	1	21
21	0	0	0	5	3	1	22
22	0	0	0	8	5	1	23
23	0	0	9	0	10	2	24	26
24	0	0	0	9	6	1	25
25	7	0	0	0	6	1	29
26	0	9	0	0	8	1	28
27	0	0	0	10	5	1	31
28	0	0	0	2	8	1	31
29	0	0	0	8	9	1	31
30	0	0	6	0	3	1	31
31	0	0	0	0	0	0
